NAME: Tnm73
COMMENT: Recalculated optimal tour for Tnm73, using concorde got a tour of length 893843.0
TYPE: TOUR
DIMENSION: 73
TOUR_SECTION
1
51
48
45
42
39
36
33
30
27
59
62
65
68
71
73
72
70
67
64
61
58
24
21
18
15
12
9
6
3
50
47
52
55
44
41
38
35
32
29
26
23
20
17
14
11
69
66
63
60
57
8
5
54
2
49
46
43
40
37
34
31
28
25
22
19
16
13
10
7
4
56
53
-1
EOF
